60
2 1 6
3 0 4
3 2 3
4 0 7
4 1 10
4 2 3
5 0 1
5 3 4
5 4 6
6 0 4
6 1 3
6 2 10
6 5 4
7 1 3
7 6 1
8 3 9
9 0 3
9 3 2
9 4 9
9 5 2
9 6 8
9 8 6
10 3 1
10 9 5
11 1 3
11 3 6
11 7 4
11 9 4
12 0 2
12 3 3
12 4 10
12 7 2
13 0 4
13 2 7
13 4 5
13 7 9
13 8 10
13 10 9
13 11 6
14 0 10
14 2 7
14 6 1
14 9 1
14 10 6
14 13 7
15 2 9
15 5 7
15 6 8
15 10 8
15 11 5
15 12 4
16 5 8
16 6 6
16 8 7
16 11 3
17 0 10
17 1 1
17 3 2
17 4 6
17 5 3
17 6 4
17 9 2
17 11 8
17 13 5
17 14 8
18 2 5
18 4 7
18 7 9
18 9 7
18 12 10
18 15 2
18 17 1
19 1 7
19 4 6
19 7 4
19 11 2
19 13 8
19 14 10
19 17 1
19 18 7
20 2 2
20 9 5
20 15 8
21 3 6
21 5 8
21 13 2
21 14 5
21 20 1
22 3 6
22 4 8
22 8 4
23 0 10
23 3 1
23 8 6
23 9 8
23 13 8
23 14 5
23 15 2
23 16 6
23 17 10
23 20 5
24 2 7
24 3 3
24 4 3
24 15 8
24 17 5
24 21 9
25 1 2
25 2 8
25 6 7
25 7 4
25 9 8
25 10 9
25 12 8
25 13 8
25 15 5
25 16 1
25 21 10
25 23 7
26 3 10
26 7 5
26 10 10
26 11 6
26 12 4
26 13 9
26 16 10
26 17 9
26 18 6
26 21 2
26 23 8
26 25 8
27 1 2
27 2 2
27 3 8
27 4 2
27 8 5
27 19 5
27 20 7
27 21 7
27 22 6
27 25 9
28 1 4
28 3 2
28 4 2
28 6 1
28 8 9
28 11 4
28 13 6
28 17 3
28 18 8
28 20 10
28 21 2
28 25 4
29 1 4
29 4 7
29 9 3
29 11 1
29 12 8
29 13 9
29 14 1
29 17 10
29 18 4
29 19 5
29 22 8
29 23 2
29 26 4
29 28 8
30 0 8
30 1 2
30 2 6
30 3 1
30 4 4
30 8 5
30 11 4
30 13 5
30 17 6
30 18 6
30 20 3
30 21 4
30 25 5
30 27 5
31 0 4
31 1 5
31 3 9
31 5 5
31 7 4
31 13 2
31 14 4
31 15 4
31 20 5
31 23 9
31 24 5
31 26 3
31 30 9
32 0 8
32 3 2
32 9 5
32 10 10
32 11 4
32 15 8
32 16 8
32 18 7
32 24 6
32 26 5
32 29 1
32 31 6
33 3 2
33 5 1
33 7 2
33 9 9
33 11 7
33 15 8
33 16 10
33 17 8
33 24 5
33 26 6
34 0 2
34 1 8
34 3 2
34 6 1
34 7 2
34 8 4
34 11 1
34 12 1
34 14 9
34 15 3
34 18 10
34 19 4
34 20 7
34 21 6
34 24 7
34 26 2
34 27 6
34 31 8
34 33 3
35 1 4
35 2 7
35 4 5
35 5 7
35 7 7
35 12 1
35 14 10
35 16 1
35 17 7
35 19 10
35 20 7
35 27 4
35 28 9
35 29 9
35 31 1
35 34 10
36 1 9
36 2 4
36 3 2
36 11 10
36 12 1
36 17 5
36 18 9
36 22 7
36 29 1
36 31 7
36 32 3
36 35 8
37 0 7
37 2 3
37 3 2
37 7 7
37 8 8
37 9 3
37 11 4
37 12 5
37 16 6
37 24 9
37 26 7
37 27 9
37 32 7
37 33 8
37 35 3
37 36 5
38 0 5
38 2 9
38 3 2
38 4 3
38 6 8
38 7 10
38 10 1
38 16 9
38 17 2
38 18 6
38 21 5
38 25 8
38 31 2
38 33 8
38 34 7
38 35 9
38 37 6
39 0 3
39 2 5
39 9 1
39 14 5
39 15 2
39 16 10
39 17 10
39 18 9
39 19 6
39 25 8
39 31 9
39 32 6
39 33 5
39 35 9
39 37 5
40 3 9
40 6 6
40 9 7
40 10 9
40 11 2
40 14 3
40 15 5
40 17 9
40 26 4
40 27 2
40 28 5
40 29 7
40 30 6
40 33 9
40 35 2
40 36 5
40 39 1
41 0 10
41 1 6
41 12 6
41 13 5
41 14 5
41 20 6
41 25 8
41 26 6
41 29 10
41 30 5
41 31 9
41 33 3
41 37 9
42 0 8
42 1 7
42 4 3
42 6 10
42 7 7
42 9 10
42 12 4
42 13 9
42 15 9
42 18 2
42 21 3
42 24 10
42 25 9
42 31 7
42 36 10
42 37 3
42 39 4
43 0 3
43 2 5
43 4 10
43 11 1
43 15 8
43 16 3
43 18 6
43 20 8
43 23 1
43 25 10
43 26 3
43 29 7
43 35 7
43 38 5
43 39 10
43 40 2
43 41 8
43 42 3
44 0 9
44 4 6
44 5 3
44 6 1
44 10 9
44 13 9
44 14 2
44 17 7
44 18 7
44 19 10
44 23 6
44 24 6
44 25 3
44 30 6
44 32 9
44 34 10
44 35 4
44 36 3
44 39 6
44 40 4
44 41 1
44 42 1
44 43 9
45 1 1
45 2 10
45 3 7
45 4 7
45 5 10
45 9 5
45 14 3
45 24 6
45 25 4
45 26 9
45 27 2
45 29 9
45 30 6
45 31 8
45 32 3
45 34 9
45 36 7
45 42 7
45 43 7
46 3 6
46 4 9
46 7 6
46 10 1
46 13 5
46 17 7
46 19 6
46 20 6
46 22 5
46 25 9
46 33 4
46 38 5
46 44 2
47 0 2
47 2 5
47 3 4
47 6 3
47 7 4
47 8 3
47 11 8
47 13 8
47 14 2
47 15 10
47 17 7
47 18 6
47 19 4
47 25 6
47 26 9
47 28 9
47 30 2
47 31 10
47 32 10
47 35 2
47 42 5
47 44 6
48 3 1
48 5 7
48 6 6
48 10 5
48 12 5
48 13 4
48 14 6
48 15 10
48 18 9
48 20 1
48 25 8
48 27 9
48 28 8
48 30 5
48 31 9
48 38 3
48 43 8
49 1 3
49 10 9
49 11 4
49 12 1
49 14 5
49 15 2
49 16 10
49 17 9
49 19 3
49 20 10
49 24 1
49 25 10
49 28 7
49 29 3
49 30 3
49 31 1
49 35 5
49 36 1
49 37 9
49 38 1
49 39 8
49 41 3
49 42 7
49 47 1
50 3 2
50 4 5
50 8 5
50 10 3
50 15 10
50 16 7
50 17 6
50 19 6
50 20 5
50 25 8
50 34 7
50 36 8
50 37 10
50 42 4
50 43 5
51 1 5
51 2 3
51 6 4
51 7 10
51 10 10
51 15 8
51 16 4
51 17 9
51 21 10
51 23 8
51 24 5
51 27 7
51 32 4
51 34 7
51 37 6
51 38 2
51 45 10
51 46 9
51 48 4
51 49 5
52 0 8
52 1 1
52 5 3
52 7 7
52 8 2
52 11 9
52 14 4
52 19 6
52 24 6
52 25 3
52 26 9
52 29 10
52 32 8
52 33 10
52 34 8
52 36 8
52 37 2
52 45 3
52 46 7
52 48 5
52 50 4
53 0 5
53 4 1
53 5 4
53 6 1
53 10 8
53 11 4
53 12 2
53 14 9
53 16 4
53 18 10
53 28 9
53 29 6
53 30 6
53 31 7
53 32 8
53 34 2
53 35 10
53 36 10
53 37 2
53 40 6
53 44 2
53 47 4
53 51 5
53 52 3
54 3 4
54 12 9
54 13 5
54 15 10
54 16 9
54 17 1
54 20 3
54 22 1
54 27 4
54 30 5
54 32 7
54 33 1
54 43 3
54 47 5
54 48 5
54 53 5
55 1 2
55 2 10
55 8 10
55 9 6
55 11 2
55 12 4
55 16 8
55 17 6
55 20 5
55 25 9
55 28 4
55 29 3
55 30 5
55 34 1
55 36 9
55 37 4
55 39 4
55 40 1
55 42 6
55 43 4
55 46 8
55 48 6
55 51 1
56 4 4
56 11 2
56 12 4
56 16 6
56 19 1
56 21 10
56 23 8
56 27 1
56 28 6
56 30 7
56 31 8
56 32 6
56 35 3
56 39 6
56 40 9
56 41 4
56 42 8
56 45 8
56 46 3
56 48 5
56 53 2
56 54 6
57 0 1
57 3 3
57 6 8
57 8 5
57 10 3
57 12 4
57 15 1
57 19 8
57 20 4
57 23 3
57 26 6
57 28 3
57 30 4
57 34 8
57 35 6
57 39 6
57 42 1
57 44 3
57 46 1
57 47 1
57 49 8
57 51 5
58 3 9
58 13 4
58 14 4
58 16 7
58 17 6
58 21 3
58 24 5
58 25 3
58 26 2
58 31 7
58 34 7
58 37 6
58 40 6
58 41 9
58 42 2
58 43 1
58 44 2
58 48 2
58 49 3
58 50 6
58 52 2
58 53 7
58 55 3
59 1 1
59 3 8
59 4 1
59 6 7
59 8 3
59 11 10
59 12 5
59 14 1
59 18 1
59 19 4
59 24 3
59 25 3
59 32 4
59 34 1
59 35 4
59 37 9
59 41 10
59 42 3
59 44 10
59 46 7
59 56 7
